# Single particle sedimentation test

units si

atom_style sphere
newton off

timestep 0.00001

# Define simulation domain
processors 1 1 1
boundary m m m
region domain block 0 0.004 0 0.004 0 0.006
create_box 1 domain

# Define and insert particles

fix p_template_1 all particletemplate/sphere 11587 &
    density constant 2500 &
    radius constant 0.0002

fix p_distribution_1 all particledistribution/discrete 11593 1 p_template_1 1.0

region insertion_region_1 block 0.002 0.002 0.002 0.002 0.004 0.004
fix insertion_1 all insert/pack &
    seed 11597 &
    distributiontemplate p_distribution_1 &
    verbose yes &
    region insertion_region_1 &
    particles_in_region 1

# Define forces
fix gravity all gravity 9.81 vector 0 0 -1

run 1000
